\ LP format - for model browsing. Use MPS format to capture full model detail.
Maximize
  60 x[0] + 100 x[1] + 120 x[2]
Subject To
 weight_constraint: 10 x[0] + 20 x[1] + 30 x[2] <= 50
Bounds
Binaries
 x[0] x[1] x[2]
End
